15 68
8 13
4 9
0 4
1 13
7 8
9 12
3 13
10 12
0 2
7 10
10 14
2 12
2 7
2 6
3 5
0 10
2 13
5 13
5 9
2 10
3 12
11 12
6 14
5 12
1 5
0 3
5 11
5 14
1 11
1 2
1 6
4 8
7 9
2 8
0 13
3 10
12 13
4 5
1 3
0 7
3 14
0 14
5 8
7 11
4 14
5 7
4 6
0 11
11 14
1 12
11 13
7 14
2 4
6 13
3 6
8 10
6 7
7 13
4 7
8 11
4 12
12 14
5 10
0 8
3 8
2 5
0 6
2 11
